(declare-fun main@%_375_0 () (_ BitVec 32))
(declare-fun main@%_387_0 () (_ BitVec 8))
(declare-fun main@%_356_0 () (_ BitVec 32))
(declare-fun main@%_366_0 () (_ BitVec 8))
(declare-fun main@%_334_0 () (_ BitVec 32))
(declare-fun main@%_344_0 () (_ BitVec 8))
(declare-fun main@%_312_0 () (_ BitVec 32))
(declare-fun main@%_286_0 () (_ BitVec 8))
(declare-fun main@%_300_0 () (_ BitVec 8))
(declare-fun main@%_264_0 () (_ BitVec 8))
(declare-fun main@%_374_0 () (_ BitVec 8))
(declare-fun main@%_269_0 () (_ BitVec 8))
(declare-fun main@%_376_0 () (_ BitVec 8))
(declare-fun main@%_278_0 () (_ BitVec 8))
(declare-fun main@%_241_0 () (_ BitVec 32))
(declare-fun main@%_242_0 () (_ BitVec 8))
(declare-fun main@%_124_0 () (_ BitVec 8))
(declare-fun main@%_263_0 () (_ BitVec 32))
(declare-fun main@%_8_0 () (_ BitVec 8))
(declare-fun main@%_92_0 () (_ BitVec 32))
(declare-fun main@%_102_0 () (_ BitVec 8))
(declare-fun main@%_70_0 () (_ BitVec 32))
(declare-fun main@%_80_0 () (_ BitVec 8))
(declare-fun main@%_43_0 () (_ BitVec 32))
(declare-fun main@%_158_0 () (_ BitVec 32))
(declare-fun main@%_44_0 () (_ BitVec 8))
(declare-fun main@%_159_0 () (_ BitVec 8))
(declare-fun main@%_48_0 () (_ BitVec 32))
(declare-fun main@%_322_0 () (_ BitVec 8))
(declare-fun sea.sp0_0 () (_ BitVec 64))
(declare-fun main@%_87_0 () (_ BitVec 32))
(declare-fun main@%_307_0 () (_ BitVec 32))
(declare-fun main@%_202_0 () (_ BitVec 32))
(declare-fun main@%_49_0 () (_ BitVec 8))
(declare-fun main@%_168_0 () (_ BitVec 8))
(declare-fun main@%_351_0 () (_ BitVec 32))
(declare-fun main@%_246_0 () (_ BitVec 32))
(declare-fun main@%_2_0 () (_ BitVec 32))
(declare-fun main@%_22_0 () (_ BitVec 32))
(declare-fun main@%_136_0 () (_ BitVec 32))
(declare-fun main@%_71_0 () (_ BitVec 8))
(declare-fun main@%_291_0 () (_ BitVec 8))
(declare-fun main@%_190_0 () (_ BitVec 8))
(declare-fun main@%_373_0 () (_ BitVec 32))
(declare-fun main@%_268_0 () (_ BitVec 32))
(declare-fun main@%_15_0 () (_ BitVec 8))
(declare-fun main@%_0_0 () (_ BitVec 8))
(declare-fun main@%_115_0 () (_ BitVec 8))
(declare-fun main@%_335_0 () (_ BitVec 8))
(declare-fun main@%_234_0 () (_ BitVec 8))
(declare-fun main@%_66_0 () (_ BitVec 8))
(declare-fun main@%_181_0 () (_ BitVec 8))
(declare-fun main@%_58_0 () (_ BitVec 8))
(declare-fun main@%_65_0 () (_ BitVec 32))
(declare-fun main@%_180_0 () (_ BitVec 32))
(declare-fun main@%_7_0 () (_ BitVec 32))
(declare-fun main@%_23_0 () (_ BitVec 8))
(declare-fun main@%_137_0 () (_ BitVec 8))
(declare-fun main@%_357_0 () (_ BitVec 8))
(declare-fun main@%_256_0 () (_ BitVec 8))
(declare-fun main@%_93_0 () (_ BitVec 8))
(declare-fun main@%_313_0 () (_ BitVec 8))
(declare-fun main@%_212_0 () (_ BitVec 8))
(declare-fun main@%_290_0 () (_ BitVec 32))
(declare-fun main@%_36_0 () (_ BitVec 8))
(declare-fun main@%_88_0 () (_ BitVec 8))
(declare-fun main@%_308_0 () (_ BitVec 8))
(declare-fun main@%_203_0 () (_ BitVec 8))
(declare-fun main@%_285_0 () (_ BitVec 32))
(declare-fun main@%_28_0 () (_ BitVec 8))
(declare-fun main@%_146_0 () (_ BitVec 8))
(declare-fun main@%_27_0 () (_ BitVec 32))
(declare-fun main@%_114_0 () (_ BitVec 32))
(declare-fun main@%_110_0 () (_ BitVec 8))
(declare-fun main@%_330_0 () (_ BitVec 8))
(declare-fun main@%_225_0 () (_ BitVec 8))
(declare-fun main@%_109_0 () (_ BitVec 32))
(declare-fun main@%_329_0 () (_ BitVec 32))
(declare-fun main@%_224_0 () (_ BitVec 32))
(declare-fun main@%_132_0 () (_ BitVec 8))
(declare-fun main@%_352_0 () (_ BitVec 8))
(declare-fun main@%_3_0 () (_ BitVec 8))
(declare-fun main@%_247_0 () (_ BitVec 8))
(declare-fun main@%_131_0 () (_ BitVec 32))
(declare-fun main@%_154_0 () (_ BitVec 8))
(declare-fun main@%_153_0 () (_ BitVec 32))
(declare-fun main@%_176_0 () (_ BitVec 8))
(declare-fun main@%_175_0 () (_ BitVec 32))
(declare-fun main@%_198_0 () (_ BitVec 8))
(declare-fun main@%_197_0 () (_ BitVec 32))
(declare-fun main@%_220_0 () (_ BitVec 8))
(declare-fun main@%_219_0 () (_ BitVec 32))

(assert (let ((a!1 (ite (= ((_ extract 0 0) main@%_0_0) #b1)
                #x00000000
                (ite (= ((_ extract 0 0) main@%_8_0) #b1) main@%_7_0 #x00000000)))
      (a!2 (ite (= ((_ extract 0 0) main@%_0_0) #b1)
                #x00000000
                (ite (= ((_ extract 0 0) main@%_3_0) #b1) main@%_2_0 #x00000000)))
      (a!3 (ite (= ((_ extract 0 0) main@%_0_0) #b1)
                true
                (= ((_ extract 0 0) (bvor main@%_8_0 main@%_3_0)) #b1)))
      (a!8 (ite (= ((_ extract 0 0) main@%_15_0) #b1)
                true
                (= ((_ extract 0 0) (bvor main@%_28_0 main@%_23_0)) #b1)))
      (a!13 (ite (= ((_ extract 0 0) main@%_36_0) #b1)
                 true
                 (= ((_ extract 0 0) (bvor main@%_49_0 main@%_44_0)) #b1)))
      (a!18 (ite (= ((_ extract 0 0) main@%_58_0) #b1)
                 true
                 (= ((_ extract 0 0) (bvor main@%_71_0 main@%_66_0)) #b1)))
      (a!23 (ite (= ((_ extract 0 0) main@%_80_0) #b1)
                 true
                 (= ((_ extract 0 0) (bvor main@%_93_0 main@%_88_0)) #b1)))
      (a!28 (ite (= ((_ extract 0 0) main@%_102_0) #b1)
                 true
                 (= ((_ extract 0 0) (bvor main@%_115_0 main@%_110_0)) #b1)))
      (a!33 (ite (= ((_ extract 0 0) main@%_124_0) #b1)
                 true
                 (= ((_ extract 0 0) (bvor main@%_137_0 main@%_132_0)) #b1)))
      (a!38 (ite (= ((_ extract 0 0) main@%_146_0) #b1)
                 true
                 (= ((_ extract 0 0) (bvor main@%_159_0 main@%_154_0)) #b1)))
      (a!43 (ite (= ((_ extract 0 0) main@%_168_0) #b1)
                 true
                 (= ((_ extract 0 0) (bvor main@%_181_0 main@%_176_0)) #b1)))
      (a!48 (ite (= ((_ extract 0 0) main@%_190_0) #b1)
                 true
                 (= ((_ extract 0 0) (bvor main@%_203_0 main@%_198_0)) #b1)))
      (a!53 (ite (= ((_ extract 0 0) main@%_212_0) #b1)
                 true
                 (= ((_ extract 0 0) (bvor main@%_225_0 main@%_220_0)) #b1)))
      (a!58 (ite (= ((_ extract 0 0) main@%_234_0) #b1)
                 true
                 (= ((_ extract 0 0) (bvor main@%_247_0 main@%_242_0)) #b1)))
      (a!63 (ite (= ((_ extract 0 0) main@%_256_0) #b1)
                 true
                 (= ((_ extract 0 0) (bvor main@%_269_0 main@%_264_0)) #b1)))
      (a!68 (ite (= ((_ extract 0 0) main@%_278_0) #b1)
                 true
                 (= ((_ extract 0 0) (bvor main@%_291_0 main@%_286_0)) #b1)))
      (a!73 (ite (= ((_ extract 0 0) main@%_300_0) #b1)
                 true
                 (= ((_ extract 0 0) (bvor main@%_313_0 main@%_308_0)) #b1)))
      (a!78 (ite (= ((_ extract 0 0) main@%_322_0) #b1)
                 true
                 (= ((_ extract 0 0) (bvor main@%_335_0 main@%_330_0)) #b1)))
      (a!83 (ite (= ((_ extract 0 0) main@%_344_0) #b1)
                 true
                 (= ((_ extract 0 0) (bvor main@%_357_0 main@%_352_0)) #b1)))
      (a!89 (ite (= ((_ extract 0 0) main@%_366_0) #b1)
                 true
                 (= ((_ extract 0 0) (bvor main@%_376_0 main@%_374_0)) #b1))))
(let ((a!4 (ite (= ((_ extract 0 0) main@%_15_0) #b1)
                #x0000000000000000
                (ite a!3
                     (bvmul ((_ zero_extend 32) a!1) ((_ zero_extend 32) a!2))
                     #x0000000000000000)))
      (a!6 (ite (= ((_ extract 0 0) main@%_15_0) #b1)
                #x00000000
                (ite (= ((_ extract 0 0) main@%_28_0) #b1) main@%_27_0 a!1)))
      (a!7 (ite (= ((_ extract 0 0) main@%_15_0) #b1)
                #x00000000
                (ite (= ((_ extract 0 0) main@%_23_0) #b1) main@%_22_0 a!2))))
(let ((a!5 (= (ite (= ((_ extract 0 0) main@%_15_0) #b1)
                   #x0000000000000000
                   (bvmul ((_ zero_extend 32) a!1) ((_ zero_extend 32) a!2)))
              a!4))
      (a!9 (ite (= ((_ extract 0 0) main@%_36_0) #b1)
                #x0000000000000000
                (ite a!8
                     (bvmul ((_ zero_extend 32) a!6) ((_ zero_extend 32) a!7))
                     a!4)))
      (a!11 (ite (= ((_ extract 0 0) main@%_36_0) #b1)
                 #x00000000
                 (ite (= ((_ extract 0 0) main@%_49_0) #b1) main@%_48_0 a!6)))
      (a!12 (ite (= ((_ extract 0 0) main@%_36_0) #b1)
                 #x00000000
                 (ite (= ((_ extract 0 0) main@%_44_0) #b1) main@%_43_0 a!7))))
(let ((a!10 (= (ite (= ((_ extract 0 0) main@%_36_0) #b1)
                    #x0000000000000000
                    (bvmul ((_ zero_extend 32) a!6) ((_ zero_extend 32) a!7)))
               a!9))
      (a!14 (ite (= ((_ extract 0 0) main@%_58_0) #b1)
                 #x0000000000000000
                 (ite a!13
                      (bvmul ((_ zero_extend 32) a!11)
                             ((_ zero_extend 32) a!12))
                      a!9)))
      (a!16 (ite (= ((_ extract 0 0) main@%_58_0) #b1)
                 #x00000000
                 (ite (= ((_ extract 0 0) main@%_71_0) #b1) main@%_70_0 a!11)))
      (a!17 (ite (= ((_ extract 0 0) main@%_58_0) #b1)
                 #x00000000
                 (ite (= ((_ extract 0 0) main@%_66_0) #b1) main@%_65_0 a!12))))
(let ((a!15 (= (ite (= ((_ extract 0 0) main@%_58_0) #b1)
                    #x0000000000000000
                    (bvmul ((_ zero_extend 32) a!11) ((_ zero_extend 32) a!12)))
               a!14))
      (a!19 (ite (= ((_ extract 0 0) main@%_80_0) #b1)
                 #x0000000000000000
                 (ite a!18
                      (bvmul ((_ zero_extend 32) a!16)
                             ((_ zero_extend 32) a!17))
                      a!14)))
      (a!21 (ite (= ((_ extract 0 0) main@%_80_0) #b1)
                 #x00000000
                 (ite (= ((_ extract 0 0) main@%_93_0) #b1) main@%_92_0 a!16)))
      (a!22 (ite (= ((_ extract 0 0) main@%_80_0) #b1)
                 #x00000000
                 (ite (= ((_ extract 0 0) main@%_88_0) #b1) main@%_87_0 a!17))))
(let ((a!20 (= (ite (= ((_ extract 0 0) main@%_80_0) #b1)
                    #x0000000000000000
                    (bvmul ((_ zero_extend 32) a!16) ((_ zero_extend 32) a!17)))
               a!19))
      (a!24 (ite (= ((_ extract 0 0) main@%_102_0) #b1)
                 #x0000000000000000
                 (ite a!23
                      (bvmul ((_ zero_extend 32) a!21)
                             ((_ zero_extend 32) a!22))
                      a!19)))
      (a!26 (ite (= ((_ extract 0 0) main@%_102_0) #b1)
                 #x00000000
                 (ite (= ((_ extract 0 0) main@%_115_0) #b1) main@%_114_0 a!21)))
      (a!27 (ite (= ((_ extract 0 0) main@%_102_0) #b1)
                 #x00000000
                 (ite (= ((_ extract 0 0) main@%_110_0) #b1) main@%_109_0 a!22))))
(let ((a!25 (= (ite (= ((_ extract 0 0) main@%_102_0) #b1)
                    #x0000000000000000
                    (bvmul ((_ zero_extend 32) a!21) ((_ zero_extend 32) a!22)))
               a!24))
      (a!29 (ite (= ((_ extract 0 0) main@%_124_0) #b1)
                 #x0000000000000000
                 (ite a!28
                      (bvmul ((_ zero_extend 32) a!26)
                             ((_ zero_extend 32) a!27))
                      a!24)))
      (a!31 (ite (= ((_ extract 0 0) main@%_124_0) #b1)
                 #x00000000
                 (ite (= ((_ extract 0 0) main@%_137_0) #b1) main@%_136_0 a!26)))
      (a!32 (ite (= ((_ extract 0 0) main@%_124_0) #b1)
                 #x00000000
                 (ite (= ((_ extract 0 0) main@%_132_0) #b1) main@%_131_0 a!27))))
(let ((a!30 (= (ite (= ((_ extract 0 0) main@%_124_0) #b1)
                    #x0000000000000000
                    (bvmul ((_ zero_extend 32) a!26) ((_ zero_extend 32) a!27)))
               a!29))
      (a!34 (ite (= ((_ extract 0 0) main@%_146_0) #b1)
                 #x0000000000000000
                 (ite a!33
                      (bvmul ((_ zero_extend 32) a!31)
                             ((_ zero_extend 32) a!32))
                      a!29)))
      (a!36 (ite (= ((_ extract 0 0) main@%_146_0) #b1)
                 #x00000000
                 (ite (= ((_ extract 0 0) main@%_159_0) #b1) main@%_158_0 a!31)))
      (a!37 (ite (= ((_ extract 0 0) main@%_146_0) #b1)
                 #x00000000
                 (ite (= ((_ extract 0 0) main@%_154_0) #b1) main@%_153_0 a!32))))
(let ((a!35 (= (ite (= ((_ extract 0 0) main@%_146_0) #b1)
                    #x0000000000000000
                    (bvmul ((_ zero_extend 32) a!31) ((_ zero_extend 32) a!32)))
               a!34))
      (a!39 (ite (= ((_ extract 0 0) main@%_168_0) #b1)
                 #x0000000000000000
                 (ite a!38
                      (bvmul ((_ zero_extend 32) a!36)
                             ((_ zero_extend 32) a!37))
                      a!34)))
      (a!41 (ite (= ((_ extract 0 0) main@%_168_0) #b1)
                 #x00000000
                 (ite (= ((_ extract 0 0) main@%_181_0) #b1) main@%_180_0 a!36)))
      (a!42 (ite (= ((_ extract 0 0) main@%_168_0) #b1)
                 #x00000000
                 (ite (= ((_ extract 0 0) main@%_176_0) #b1) main@%_175_0 a!37))))
(let ((a!40 (= (ite (= ((_ extract 0 0) main@%_168_0) #b1)
                    #x0000000000000000
                    (bvmul ((_ zero_extend 32) a!36) ((_ zero_extend 32) a!37)))
               a!39))
      (a!44 (ite (= ((_ extract 0 0) main@%_190_0) #b1)
                 #x0000000000000000
                 (ite a!43
                      (bvmul ((_ zero_extend 32) a!41)
                             ((_ zero_extend 32) a!42))
                      a!39)))
      (a!46 (ite (= ((_ extract 0 0) main@%_190_0) #b1)
                 #x00000000
                 (ite (= ((_ extract 0 0) main@%_203_0) #b1) main@%_202_0 a!41)))
      (a!47 (ite (= ((_ extract 0 0) main@%_190_0) #b1)
                 #x00000000
                 (ite (= ((_ extract 0 0) main@%_198_0) #b1) main@%_197_0 a!42))))
(let ((a!45 (= (ite (= ((_ extract 0 0) main@%_190_0) #b1)
                    #x0000000000000000
                    (bvmul ((_ zero_extend 32) a!41) ((_ zero_extend 32) a!42)))
               a!44))
      (a!49 (ite (= ((_ extract 0 0) main@%_212_0) #b1)
                 #x0000000000000000
                 (ite a!48
                      (bvmul ((_ zero_extend 32) a!46)
                             ((_ zero_extend 32) a!47))
                      a!44)))
      (a!51 (ite (= ((_ extract 0 0) main@%_212_0) #b1)
                 #x00000000
                 (ite (= ((_ extract 0 0) main@%_225_0) #b1) main@%_224_0 a!46)))
      (a!52 (ite (= ((_ extract 0 0) main@%_212_0) #b1)
                 #x00000000
                 (ite (= ((_ extract 0 0) main@%_220_0) #b1) main@%_219_0 a!47))))
(let ((a!50 (= (ite (= ((_ extract 0 0) main@%_212_0) #b1)
                    #x0000000000000000
                    (bvmul ((_ zero_extend 32) a!46) ((_ zero_extend 32) a!47)))
               a!49))
      (a!54 (ite (= ((_ extract 0 0) main@%_234_0) #b1)
                 #x0000000000000000
                 (ite a!53
                      (bvmul ((_ zero_extend 32) a!51)
                             ((_ zero_extend 32) a!52))
                      a!49)))
      (a!56 (ite (= ((_ extract 0 0) main@%_234_0) #b1)
                 #x00000000
                 (ite (= ((_ extract 0 0) main@%_247_0) #b1) main@%_246_0 a!51)))
      (a!57 (ite (= ((_ extract 0 0) main@%_234_0) #b1)
                 #x00000000
                 (ite (= ((_ extract 0 0) main@%_242_0) #b1) main@%_241_0 a!52))))
(let ((a!55 (= (ite (= ((_ extract 0 0) main@%_234_0) #b1)
                    #x0000000000000000
                    (bvmul ((_ zero_extend 32) a!51) ((_ zero_extend 32) a!52)))
               a!54))
      (a!59 (ite (= ((_ extract 0 0) main@%_256_0) #b1)
                 #x0000000000000000
                 (ite a!58
                      (bvmul ((_ zero_extend 32) a!56)
                             ((_ zero_extend 32) a!57))
                      a!54)))
      (a!61 (ite (= ((_ extract 0 0) main@%_256_0) #b1)
                 #x00000000
                 (ite (= ((_ extract 0 0) main@%_269_0) #b1) main@%_268_0 a!56)))
      (a!62 (ite (= ((_ extract 0 0) main@%_256_0) #b1)
                 #x00000000
                 (ite (= ((_ extract 0 0) main@%_264_0) #b1) main@%_263_0 a!57))))
(let ((a!60 (= (ite (= ((_ extract 0 0) main@%_256_0) #b1)
                    #x0000000000000000
                    (bvmul ((_ zero_extend 32) a!56) ((_ zero_extend 32) a!57)))
               a!59))
      (a!64 (ite (= ((_ extract 0 0) main@%_278_0) #b1)
                 #x0000000000000000
                 (ite a!63
                      (bvmul ((_ zero_extend 32) a!61)
                             ((_ zero_extend 32) a!62))
                      a!59)))
      (a!66 (ite (= ((_ extract 0 0) main@%_278_0) #b1)
                 #x00000000
                 (ite (= ((_ extract 0 0) main@%_291_0) #b1) main@%_290_0 a!61)))
      (a!67 (ite (= ((_ extract 0 0) main@%_278_0) #b1)
                 #x00000000
                 (ite (= ((_ extract 0 0) main@%_286_0) #b1) main@%_285_0 a!62))))
(let ((a!65 (= (ite (= ((_ extract 0 0) main@%_278_0) #b1)
                    #x0000000000000000
                    (bvmul ((_ zero_extend 32) a!61) ((_ zero_extend 32) a!62)))
               a!64))
      (a!69 (ite (= ((_ extract 0 0) main@%_300_0) #b1)
                 #x0000000000000000
                 (ite a!68
                      (bvmul ((_ zero_extend 32) a!66)
                             ((_ zero_extend 32) a!67))
                      a!64)))
      (a!71 (ite (= ((_ extract 0 0) main@%_300_0) #b1)
                 #x00000000
                 (ite (= ((_ extract 0 0) main@%_313_0) #b1) main@%_312_0 a!66)))
      (a!72 (ite (= ((_ extract 0 0) main@%_300_0) #b1)
                 #x00000000
                 (ite (= ((_ extract 0 0) main@%_308_0) #b1) main@%_307_0 a!67))))
(let ((a!70 (= (ite (= ((_ extract 0 0) main@%_300_0) #b1)
                    #x0000000000000000
                    (bvmul ((_ zero_extend 32) a!66) ((_ zero_extend 32) a!67)))
               a!69))
      (a!74 (ite (= ((_ extract 0 0) main@%_322_0) #b1)
                 #x0000000000000000
                 (ite a!73
                      (bvmul ((_ zero_extend 32) a!71)
                             ((_ zero_extend 32) a!72))
                      a!69)))
      (a!76 (ite (= ((_ extract 0 0) main@%_322_0) #b1)
                 #x00000000
                 (ite (= ((_ extract 0 0) main@%_335_0) #b1) main@%_334_0 a!71)))
      (a!77 (ite (= ((_ extract 0 0) main@%_322_0) #b1)
                 #x00000000
                 (ite (= ((_ extract 0 0) main@%_330_0) #b1) main@%_329_0 a!72))))
(let ((a!75 (= (ite (= ((_ extract 0 0) main@%_322_0) #b1)
                    #x0000000000000000
                    (bvmul ((_ zero_extend 32) a!71) ((_ zero_extend 32) a!72)))
               a!74))
      (a!79 (ite (= ((_ extract 0 0) main@%_344_0) #b1)
                 #x0000000000000000
                 (ite a!78
                      (bvmul ((_ zero_extend 32) a!76)
                             ((_ zero_extend 32) a!77))
                      a!74)))
      (a!81 (ite (= ((_ extract 0 0) main@%_344_0) #b1)
                 #x00000000
                 (ite (= ((_ extract 0 0) main@%_357_0) #b1) main@%_356_0 a!76)))
      (a!82 (ite (= ((_ extract 0 0) main@%_344_0) #b1)
                 #x00000000
                 (ite (= ((_ extract 0 0) main@%_352_0) #b1) main@%_351_0 a!77))))
(let ((a!80 (= (ite (= ((_ extract 0 0) main@%_344_0) #b1)
                    #x0000000000000000
                    (bvmul ((_ zero_extend 32) a!76) ((_ zero_extend 32) a!77)))
               a!79))
      (a!84 (ite (= ((_ extract 0 0) main@%_366_0) #b1)
                 #x0000000000000000
                 (ite a!83
                      (bvmul ((_ zero_extend 32) a!81)
                             ((_ zero_extend 32) a!82))
                      a!79)))
      (a!86 ((_ zero_extend 32)
              (ite (= ((_ extract 0 0) main@%_376_0) #b1) main@%_375_0 a!81)))
      (a!87 ((_ zero_extend 32)
              (ite (= ((_ extract 0 0) main@%_374_0) #b1) main@%_373_0 a!82))))
(let ((a!85 (= (ite (= ((_ extract 0 0) main@%_366_0) #b1)
                    #x0000000000000000
                    (bvmul ((_ zero_extend 32) a!81) ((_ zero_extend 32) a!82)))
               a!84))
      (a!88 (ite (= ((_ extract 0 0) main@%_387_0) #b1)
                 #x0000000000000000
                 (ite (= ((_ extract 0 0) main@%_366_0) #b1)
                      #x0000000000000000
                      (bvmul a!86 a!87))))
      (a!90 (ite a!89
                 (ite (= ((_ extract 0 0) main@%_366_0) #b1)
                      #x0000000000000000
                      (bvmul a!86 a!87))
                 a!84)))
(let ((a!91 (= a!88
               (ite (= ((_ extract 0 0) main@%_387_0) #b1)
                    #x0000000000000000
                    a!90))))
(let ((a!92 (ite a!80 (ite a!85 (and true (xor a!91 true)) true) true)))
(let ((a!93 (ite a!60 (ite a!65 (ite a!70 (ite a!75 a!92 true) true) true) true)))
(let ((a!94 (ite a!40 (ite a!45 (ite a!50 (ite a!55 a!93 true) true) true) true)))
(let ((a!95 (ite a!20 (ite a!25 (ite a!30 (ite a!35 a!94 true) true) true) true)))
  (and (= #b000 ((_ extract 2 0) sea.sp0_0))
       (bvule sea.sp0_0 #x00000000c0000000)
       (bvuge sea.sp0_0 #x00000000bf700000)
       (ite a!5 (ite a!10 (ite a!15 a!95 true) true) true)))))))))))))))))))))))))))
(check-sat)
